#
# CELL written by cell_write: Keith Refson, Oct 2006
#
%BLOCK lattice_cart
   ANG
       2.46403420304704      -0.229081193841422E-03  -0.393759791307558E-11
       1.23181967812438        2.13311625305749      -0.889282600382683E-12
      0.220172036577153E-10  -0.628337202678844E-11    14.0000000000000    
%ENDBLOCK lattice_cart

%BLOCK cell_constraints
      1   2   0
      0   0   0
%ENDBLOCK cell_constraints

%BLOCK positions_frac
   C              0.333576786043695       0.333547652365154       0.499999999970373
   C             -0.000243452710359      -0.000214319031819       0.500000000029626
%ENDBLOCK positions_frac

FIX_COM : true

%BLOCK species_pot
   C       2|1.4|1.4|1.3|6|10|12|20:21(qc=6)[]
%ENDBLOCK species_pot

kpoint_mp_grid :   10  10   1

