#
# CELL written by cell_write: Keith Refson, Oct 2006
#
%BLOCK lattice_cart
   ANG
       2.44963985696429      -0.245212525120310E-03  -0.379094544747517E-11
       1.22460858735193        2.12059403725111      -0.642800094218439E-12
      0.213393157795827E-10  -0.752646420877764E-11    14.0000000000000    
%ENDBLOCK lattice_cart

%BLOCK cell_constraints
      1   2   0
      0   0   0
%ENDBLOCK cell_constraints

%BLOCK positions_frac
   C              0.333582067332683       0.333551287729483       0.500000000014698
   C             -0.000248733999347      -0.000217954396148       0.499999999985301
%ENDBLOCK positions_frac

FIX_COM : true

%BLOCK species_pot
C 2|1.4|1.4|1.3|6|10|12|20:21(qc=6)[]
#   C       /work/y07/y07/castep/6.1.1-phase3/pseudopotentials/C_00PBE.usp
%ENDBLOCK species_pot

kpoint_mp_grid :   10  10   1

