%BLOCK LATTICE_CART
       1.63564789226558       -1.67160178017330      -0.576538616188161E-02
       1.64207894071852        1.66514148525013      -0.575044008102570E-02
     -0.100729068546041       0.915909219798464E-05    2.54702368546382    
%ENDBLOCK LATTICE_CART
%BLOCK POSITIONS_FRAC
   P              0.000000000000000       0.000000000000000       0.214966666666667
%ENDBLOCK POSITIONS_FRAC
#
# 
#









KPOINTS_MP_SPACING 0.05

%BLOCK SPECIES_POT
P ~/pspot/P_00PBE.usp
%ENDBLOCK SPECIES_POT

